benchmarks/bfuzz0/305420584364860421085810489306008738.smt2
(set-logic QF_FP)
(declare-const x0 (_ FloatingPoint 8 24))
(declare-const x1 (_ FloatingPoint 8 24))
(declare-const x2 (_ FloatingPoint 8 24))
(declare-const x3 (_ FloatingPoint 8 24))
(declare-const x4 (_ FloatingPoint 8 24))
(declare-const x5 (_ FloatingPoint 8 24))
(declare-const x6 (_ FloatingPoint 8 24))
(declare-const x7 (_ FloatingPoint 8 24))
(declare-const x8 (_ FloatingPoint 8 24))
(assert (fp.leq (fp.neg x6) (fp.add RNE x4 x8)))
(assert (fp.leq (fp.add RNE x0 x3) (fp.mul RNE x6 x0)))
(assert (fp.geq (fp.add RNE x5 x1) (fp.sub RNE x8 x5)))
(assert (fp.lt (fp.div RNE x2 x1) (fp.sub RNE x2 x7)))
(assert (fp.gt (fp.div RNE x2 x3) (fp.div RNE x2 x0)))
(assert (fp.geq (fp.neg x4) (fp.mul RNE x5 x5)))
(assert (fp.eq (fp.mul RNE x2 x8) (fp.sub RNE x0 x1)))
(assert (fp.lt (fp.sub RNE x3 x5) (fp.mul RNE x1 x8)))
(assert (fp.eq (fp.neg x4) (fp.add RNE x5 x7)))
(assert (fp.geq (fp.sub RNE x3 x7) (fp.neg x6)))
(assert (fp.eq (fp.neg x8) (fp.sub RNE x3 x0)))
(assert (fp.lt (fp.sub RNE x6 x7) (fp.div RNE x0 x2)))
(assert (fp.lt (fp.sub RNE x4 x6) (fp.div RNE x5 x5)))
(assert (fp.lt (fp.div RNE x8 x3) (fp.add RNE x2 x7)))
(assert (fp.leq (fp.neg x8) (fp.add RNE x4 x2)))
(assert (fp.lt (fp.mul RNE x0 x3) (fp.mul RNE x7 x7)))
(assert (fp.eq (fp.neg x7) (fp.div RNE x6 x7)))
(assert (fp.lt (fp.add RNE x0 x2) (fp.div RNE x8 x1)))
(check-sat)
