db/data/305420584364860421085810489306008738.z3.out
-------------------
2500.070855131
